c Instancia generada aleatoriamente
p edge 20 51
e 1 2
e 1 4
e 1 5
e 1 9
e 1 11
e 1 14
e 1 18
e 1 19
e 2 13
e 2 20
e 3 5
e 3 7
e 3 10
e 3 12
e 3 14
e 4 5
e 4 8
e 4 11
e 4 12
e 4 17
e 4 18
e 4 20
e 5 6
e 5 8
e 5 16
e 6 11
e 6 13
e 6 14
e 6 17
e 7 12
e 7 18
e 7 19
e 7 20
e 8 18
e 9 12
e 10 15
e 10 17
e 11 12
e 11 18
e 12 17
e 13 14
e 13 16
e 13 18
e 13 19
e 13 20
e 14 16
e 15 17
e 15 19
e 16 17
e 16 18
e 16 20
